VALUE 13275
98 99
98 371
371 646
646 647
647 927
927 1201
1201 1472
1472 1741
1741 2015
2005 2006
2006 2007
2007 2008
2008 2009
2009 2276
2015 2283
2276 2277
2277 2278
2278 2279
2279 2280
2280 2281
2281 2282
2282 2283
2283 2284
2283 2557
2557 2834
2572 2849
2572 2573
2573 2574
2832 2833
2832 3106
2833 2834
2842 2843
2842 3116
2843 2844
2844 2845
2845 2846
2846 2847
2847 2848
2848 2849
2849 2850
2850 2851
2851 2852
2852 2853
2853 2854
2854 2855
2855 3129
3063 3064
3064 3065
3065 3066
3066 3067
3067 3068
3068 3069
3069 3070
3070 3344
3106 3380
3116 3390
3129 3403
3344 3345
3345 3613
3380 3648
3390 3655
3403 3404
3404 3405
3405 3406
3406 3407
3407 3408
3408 3409
3409 3410
3410 3411
3411 3412
3412 3413
3413 3414
3414 3415
3415 3416
3416 3417
3417 3418
3418 3419
3419 3420
3420 3421
3421 3422
3422 3681
3443 3444
3443 3705
3444 3445
3445 3446
3446 3447
3447 3448
3448 3449
3449 3450
3450 3451
3451 3713
3613 3878
3634 3899
3646 3911
3646 3647
3647 3648
3655 3923
3681 3955
3705 3978
3713 3714
3714 3715
3715 3988
3749 3750
3749 4022
3750 3751
3751 3752
3752 3753
3753 3754
3754 3755
3755 3756
3756 3757
3757 4029
3899 3900
3900 3901
3911 3912
3912 3913
3913 3914
3914 3915
3915 3916
3916 3917
3917 3918
3918 3919
3919 3920
3920 3921
3921 3922
3922 3923
3923 3924
3924 3925
3973 3974
3974 3975
3975 3976
3976 3977
3977 3978
4029 4030
4030 4031
4031 4032
4032 4033
4033 4034
4034 4035
4035 4036
4036 4037
4037 4038
4038 4039
4039 4040
4148 3878
4148 4415
4170 4437
4170 3901
4180 3911
4180 4447
4194 4195
4194 3925
4195 4196
4196 4462
4221 3955
4221 4222
4222 4223
4223 4487
4242 3973
4242 4508
4256 3988
4256 4522
4271 4272
4271 4536
4272 4273
4273 4274
4274 4275
4275 4276
4276 4277
4277 4278
4278 4279
4279 4280
4280 4281
4281 4282
4282 4283
4283 4284
4284 4285
4285 4286
4286 4287
4287 4288
4288 4289
4289 4022
4306 4307
4306 4040
4307 4308
4308 4309
4309 4310
4310 4311
4311 4312
4312 4313
4313 4314
4314 4315
4315 4316
4316 4317
4317 4318
4318 4319
4319 4320
4320 4321
4321 4322
4322 4323
4323 4324
4324 4325
4325 4587
4368 4369
4369 4370
4370 4371
4371 4633
4414 4673
4414 4415
4437 4697
4447 4707
4487 4748
4491 4752
4491 4492
4492 4493
4493 4494
4494 4495
4495 4496
4496 4497
4497 4498
4498 4499
4499 4500
4500 4501
4501 4502
4502 4503
4503 4762
4508 4767
4522 4523
4523 4778
4536 4792
4587 4846
4633 4634
4634 4635
4635 4636
4636 4637
4637 4896
4637 4638
4638 4639
4639 4640
4640 4641
4641 4642
4642 4643
4643 4644
4644 4645
4645 4646
4646 4647
4647 4906
4673 4938
4697 4962
4697 4698
4698 4699
4699 4700
4700 4701
4701 4702
4702 4703
4703 4704
4704 4705
4705 4706
4706 4707
4707 4708
4707 4972
4748 4749
4749 4750
4750 4751
4751 4752
4762 4763
4763 4764
4764 4765
4765 4766
4766 4767
4778 4779
4779 4780
4780 4781
4781 4782
4782 4783
4783 4784
4784 5053
4785 4786
4785 5055
4786 4787
4787 4788
4788 4789
4789 4790
4790 4791
4791 4792
4792 5060
4846 5114
4896 5160
4906 4907
4907 4908
4908 4909
4909 4910
4910 4911
4911 4912
4912 4913
4913 4914
4914 4915
4915 4916
4915 5179
4916 4917
4917 4918
4918 4919
4919 4920
4920 4921
4921 4922
4922 4923
4923 4924
4924 5187
4938 5201
4962 5225
4972 5232
5053 5054
5054 5055
5060 5061
5061 5062
5062 5319
5114 5115
5115 5116
5116 5117
5117 5118
5118 5119
5119 5120
5120 5376
5160 5421
5179 5439
5187 5446
5201 5460
5225 5484
5232 5494
5319 5588
5376 5641
5421 5685
5439 5699
5446 5707
5450 5451
5450 5711
5451 5452
5452 5453
5453 5454
5454 5715
5460 5721
5473 5474
5473 5734
5484 5745
5494 5754
5588 5845
5641 5901
5699 5957
5707 5708
5708 5709
5709 5710
5710 5711
5711 5970
5715 5716
5716 5717
5717 5718
5718 5719
5718 5977
5719 5720
5720 5721
5721 5722
5722 5723
5723 5724
5724 5725
5725 5726
5726 5727
5727 5728
5728 5729
5729 5730
5730 5731
5731 5732
5732 5733
5733 5734
5734 5735
5735 5736
5736 5737
5737 5738
5737 5996
5738 5739
5739 5740
5740 5741
5741 5742
5742 5743
5743 5744
5744 5745
5745 6004
5754 5755
5755 5756
5756 5757
5757 6016
5757 5758
5758 5759
5759 5760
5760 5761
5761 5762
5762 5763
5763 5764
5764 6023
5845 6103
5901 6161
5957 6221
5977 6241
5996 5997
5997 5998
5998 5999
5999 6257
6016 6275
6023 6024
6024 6025
6025 6026
6026 6027
6027 6028
6028 6286
6103 6360
6161 6419
6221 6480
6241 6497
6257 6519
6275 6536
6286 6287
6287 6288
6288 6289
6289 6290
6290 6291
6291 6292
6292 6293
6293 6294
6294 6295
6295 6549
6360 6622
6419 6680
6475 6737
6475 6476
6476 6477
6477 6478
6478 6479
6479 6480
6519 6780
6536 6796
6549 6815
6622 6887
6680 6946
6737 7001
6796 7060
6815 6816
6816 6817
6817 6818
6818 6819
6819 6820
6820 6821
6821 6822
6821 7084
6887 6888
6946 7212
7001 7268
7060 7323
7084 7348
7212 7473
7268 7269
7269 7270
7270 7529
7323 7586
7348 7610
7473 7733
7529 7792
7586 7846
7610 7871
7733 7993
7792 8055
7846 8114
7870 7871
7871 7872
7872 7873
7873 7874
7874 8141
8263 8529
8263 7993
8321 8055
8321 8590
8379 8114
8379 8380
8380 8643
8407 8408
8407 8141
8408 8409
8409 8668
8529 8530
8530 8790
8590 8849
8643 8909
8668 8938
8699 8700
8700 8701
8701 8702
8702 8703
8703 8974
8790 9061
8827 9097
8849 8850
8850 8851
8851 9120
8909 9178
8938 9204
8974 9235
9061 9320
9097 9098
9098 9099
9099 9100
9100 9101
9100 9359
9101 9360
9120 9381
9178 9438
9204 9467
9235 9236
9235 9501
9236 9237
9320 9584
9359 9624
9360 9625
9381 9644
9438 9700
9467 9727
9501 9756
9584 9839
9624 9879
9625 9626
9626 9627
9627 9628
9628 9629
9629 9630
9630 9631
9631 9632
9632 9633
9633 9634
9634 9635
9635 9636
9636 9637
9637 9638
9638 9639
9639 9890
9644 9898
9700 9958
9727 9987
9756 9757
9757 9758
9758 10022
9839 9840
9840 9841
9841 9842
9842 9843
9843 9844
9844 9845
9845 9846
9846 9847
9847 9848
9848 10114
9879 10141
9890 9891
9891 9892
9892 9893
9893 9894
9894 9895
9895 9896
9896 9897
9897 9898
9898 10161
9958 10219
9987 10247
9995 9996
9995 10255
9996 9997
9997 9998
9998 9999
9999 10000
10000 10001
10001 10259
10022 10277
10114 10372
10141 10401
10161 10162
10162 10163
10163 10164
10164 10165
10165 10166
10166 10167
10167 10168
10168 10428
10219 10477
10247 10248
10248 10249
10249 10250
10250 10251
10251 10252
10252 10253
10253 10254
10254 10255
10259 10516
10277 10540
10372 10632
10401 10661
10428 10690
10477 10743
10516 10517
10517 10518
10518 10519
10519 10520
10520 10521
10521 10790
10532 10802
10532 10533
10533 10534
10534 10535
10535 10536
10536 10537
10537 10538
10538 10539
10539 10540
10632 10900
10661 10930
10690 10956
10743 11003
10790 11048
10802 11060
10900 11160
10903 10904
10903 11163
10904 10905
10905 10906
10906 10907
10907 10908
10908 10909
10909 10910
10910 10911
10911 10912
10930 10931
10931 11191
10956 11218
11003 11267
11048 11049
11049 11050
11050 11051
11051 11052
11052 11053
11053 11054
11054 11055
11055 11056
11056 11057
11057 11058
11058 11059
11059 11060
11160 11424
11163 11427
11191 11454
11218 11478
11257 11258
11257 11518
11258 11259
11259 11260
11260 11261
11261 11262
11262 11263
11263 11264
11264 11265
11265 11266
11266 11267
11418 11682
11418 11419
11419 11420
11420 11421
11421 11422
11422 11423
11423 11424
11424 11425
11425 11426
11426 11427
11427 11428
11428 11429
11429 11430
11430 11431
11431 11432
11432 11433
11433 11696
11454 11716
11478 11743
11518 11784
11678 11944
11678 11679
11679 11680
11680 11681
11681 11682
11696 11962
11743 12011
11784 12051
11925 12194
11925 11926
11926 11927
11927 11928
11928 11929
11929 11930
11930 11931
11931 11932
11932 11933
11933 11934
11934 11935
11935 11936
11936 11937
11937 11938
11938 11939
11939 11940
11940 11941
11941 11942
11942 11943
11943 11944
11962 12229
12011 12278
12188 12189
12189 12190
12190 12191
12191 12192
12192 12193
12193 12194
12317 12051
12453 12454
12453 12188
12454 12455
12455 12723
12489 12229
12541 12278
12541 12810
12723 12724
12724 12989
12989 13250
13222 13223
13222 13484
13223 13224
13224 13225
13225 13226
13226 13227
13227 13228
13228 13229
13229 13230
13230 13231
13231 13232
13232 13233
13233 13234
13234 13235
13235 13236
13236 13237
13237 13238
13238 13239
13239 13240
13240 13241
13241 13242
13242 13504
13250 13514
13484 13747
13504 13505
13505 13506
13506 13507
13507 13508
13508 13509
13509 13510
13510 13511
13511 13512
13512 13513
13513 13514
13513 13775
13747 14020
13775 14043
13783 14051
13783 13784
13784 13785
13785 13786
13786 13787
13787 13788
13788 13789
13789 13790
13790 13791
13791 13792
13792 14059
14020 14292
14043 14318
14051 14327
14059 14060
14060 14061
14061 14062
14062 14063
14063 14064
14064 14065
14065 14066
14066 14067
14067 14068
14068 14069
14069 14070
14070 14071
14071 14072
14072 14073
14073 14074
14074 14349
14283 14284
14283 14556
14284 14285
14285 14286
14286 14287
14287 14288
14288 14289
14289 14290
14290 14291
14291 14292
14318 14592
14327 14601
14349 14622
14556 14824
14592 14593
14593 14594
14594 14595
14595 14596
14596 14597
14597 14862
14601 14866
14622 14887
14824 15093
14862 15130
14866 15134
14887 14888
14888 14889
14889 14890
14890 14891
14891 14892
14892 15160
15093 15361
15130 15131
15131 15132
15132 15133
15133 15134
15160 15426
15361 15630
15426 15698
15630 15631
15631 15904
15690 15691
15690 15964
15691 15692
15692 15693
15693 15694
15694 15695
15695 15696
15696 15697
15697 15698
15904 16175
15923 15924
15924 15925
15925 15926
15926 16199
15964 16237
16199 16200
16396 16397
16397 16398
16398 16399
16399 16400
16400 16663
16448 16711
16448 16175
16471 16472
16471 16200
16472 16473
16473 16474
16474 16475
16475 16476
16476 16477
16477 16478
16478 16740
16498 16499
16499 16500
16500 16501
16501 16767
16505 16772
16505 16237
16663 16664
16664 16665
16665 16666
16666 16667
16667 16668
16668 16669
16669 16670
16670 16671
16671 16672
16671 16942
16672 16673
16673 16674
16674 16675
16675 16676
16676 16677
16677 16678
16678 16679
16679 16680
16680 16681
16681 16682
16682 16953
16711 16982
16740 17011
16767 16768
16767 17036
16768 16769
16769 16770
16770 16771
16771 16772
16942 17197
16953 17208
16982 17237
17011 17267
17036 17292
17160 17161
17160 17418
17161 17162
17162 17163
17163 17164
17164 17419
17197 17452
17197 17198
17208 17209
17209 17210
17210 17211
17211 17212
17212 17213
17222 17477
17222 17223
17223 17224
17224 17225
17237 17492
17267 17517
17292 17539
17406 17407
17407 17408
17408 17409
17409 17410
17410 17411
17411 17412
17412 17413
17413 17414
17414 17415
17415 17416
17416 17417
17417 17418
17419 17420
17420 17421
17421 17422
17422 17423
17423 17424
17424 17425
17425 17426
17426 17427
17427 17428
17428 17429
17429 17677
17452 17701
17477 17726
17492 17741
17517 17518
17518 17774
17518 17519
17519 17520
17520 17521
17521 17522
17522 17523
17523 17524
17524 17780
17539 17800
17677 17942
17701 17966
17725 17990
17725 17726
17726 17727
17727 17728
17728 17729
17729 17730
17730 17731
17731 17732
17732 17733
17733 17734
17734 17735
17735 17736
17736 17737
17737 18002
17741 18006
17742 18007
17742 17743
17743 17744
17744 17745
17745 17746
17746 17747
17774 18035
17780 17781
17781 18038
17800 18057
17809 17810
17809 18069
17810 17811
17811 17812
17812 17813
17813 17814
17942 17943
17943 17944
17944 17945
17945 18204
17964 17965
17964 18223
17965 17966
17966 17967
17967 18226
17979 17980
17979 18238
17980 17981
17981 17982
17982 17983
17983 17984
17983 18242
17984 17985
17985 17986
17986 17987
17987 17988
17988 17989
17989 17990
18002 18003
18003 18004
18004 18005
18005 18006
18006 18007
18007 18008
18008 18009
18009 18268
18035 18299
18038 18039
18039 18040
18040 18041
18041 18042
18042 18043
18043 18044
18044 18045
18045 18046
18046 18047
18047 18048
18048 18049
18049 18316
18057 18325
18067 18068
18067 18335
18068 18069
18204 18471
18212 18213
18212 18479
18213 18214
18214 18215
18215 18216
18216 18217
18217 18218
18218 18219
18219 18220
18220 18221
18221 18222
18222 18223
18226 18227
18227 18494
18228 18229
18228 18495
18229 18230
18230 18231
18231 18232
18232 18233
18233 18234
18234 18235
18235 18236
18236 18237
18237 18238
18242 18509
18268 18535
18269 18536
18269 18270
18270 18271
18271 18272
18272 18273
18273 18274
18274 18275
18275 18276
18276 18542
18299 18566
18316 18317
18317 18318
18318 18319
18319 18320
18320 18321
18321 18322
18322 18323
18323 18324
18324 18325
18325 18326
18326 18327
18327 18328
18328 18329
18329 18330
18330 18331
18331 18332
18332 18333
18333 18600
18335 18602
18471 18472
18472 18742
18472 18473
18473 18474
18474 18475
18475 18476
18476 18477
18477 18478
18478 18479
18479 18480
18480 18750
18493 18763
18493 18494
18494 18495
18509 18779
18534 18804
18534 18535
18535 18536
18542 18543
18543 18544
18566 18832
18600 18863
18602 18865
18742 18743
18743 18744
18750 19010
18763 19023
18779 18780
18780 18781
18781 19041
18832 19096
18863 18864
18864 18865
18865 18866
18866 18867
18867 18868
18868 18869
18869 19133
19010 19280
19023 19024
19024 19025
19025 19295
19041 19042
19096 19362
19133 19394
19280 19529
19295 19296
19296 19297
19297 19298
19298 19299
19299 19548
19362 19613
19394 19395
19395 19396
19396 19646
19529 19783
19548 19802
19610 19611
19611 19612
19612 19613
19783 19784
19783 20041
19784 19785
19802 20060
19803 19804
19803 20061
19804 19805
19805 19806
20041 20311
20060 20061
20302 20303
20303 20304
20304 20305
20305 20306
20306 20307
20307 20308
20308 20309
20309 20310
20310 20311
20570 20836
20570 20302
20836 21102
21102 21363
21363 21624
21624 21884
21877 22144
21877 21878
21878 21879
21879 21880
21880 21881
21881 22148
21884 22151
22142 22408
22142 22143
22143 22144
22148 22414
22151 22417
22408 22674
22414 22415
22415 22416
22416 22417
22674 22939
22939 23202
23202 23469
23469 23737
23737 24002
24002 24269
24269 24542
24815 25089
24815 24542
25089 25363
25362 25363
25362 25640
25363 25364
25364 25365
25365 25366
25366 25367
25367 25368
25368 25369
25369 25370
25370 25371
25371 25372
25372 25373
25373 25651
25640 25920
25651 25931
25920 26192
25931 25932
25932 25933
25933 25934
25934 25935
25935 25936
25936 25937
25937 25938
25938 25939
26192 26461
26461 26720
26720 26994
26781 26782
26781 27054
26782 26783
26783 26784
26784 26785
26785 26786
26786 26787
26787 26788
26788 26789
26789 26790
26790 26791
26791 26792
26792 26793
26793 26794
26794 26795
26795 26796
26796 26797
26797 26798
26798 26799
26799 26800
26800 26801
26801 27074
26994 27267
27027 27028
27028 27029
27029 27030
27030 27031
27031 27303
27054 27326
27074 27346
27267 27538
27303 27576
27326 27599
27346 27619
27429 27697
27429 27430
27430 27431
27431 27432
27432 27433
27433 27434
27434 27435
27435 27436
27436 27437
27437 27438
27438 27439
27439 27440
27440 27441
27441 27442
27442 27443
27443 27444
27444 27445
27445 27712
27508 27776
27508 27509
27509 27510
27510 27511
27511 27512
27512 27513
27513 27514
27514 27515
27515 27516
27516 27517
27517 27518
27518 27519
27519 27520
27520 27521
27521 27789
27538 27804
27576 27840
27619 27883
27697 27968
27712 27983
27743 27744
27743 28015
27744 27745
27745 27746
27746 27747
27747 27748
27748 27749
27749 27750
27750 27751
27751 27752
27752 27753
27753 27754
27754 27755
27755 27756
27756 27757
27757 27758
27758 27759
27759 27760
27760 27761
27761 27762
27762 27763
27763 27764
27764 27765
27765 27766
27766 27767
27767 27768
27768 27769
27769 27770
27770 27771
27771 27772
27772 27773
27773 27774
27774 27775
27775 27776
27789 28061
27796 27797
27796 28069
27797 27798
27798 27799
27799 27800
27800 27801
27801 27802
27802 27803
27802 28075
27803 27804
27804 27805
27805 27806
27806 27807
27807 27808
27808 28081
27821 27822
27821 28094
27822 27823
27823 27824
27824 27825
27825 28097
27840 27841
27841 28115
27883 28157
27965 28241
27965 27966
27966 27967
27967 27968
27983 28259
28015 28292
28061 28337
28069 28347
28075 28353
28081 28082
28082 28083
28083 28084
28084 28085
28085 28086
28086 28087
28087 28088
28088 28089
28089 28090
28090 28091
28091 28092
28092 28093
28093 28094
28097 28371
28115 28388
28145 28146
28145 28418
28146 28147
28147 28148
28148 28149
28149 28150
28150 28151
28151 28152
28152 28153
28153 28154
28154 28155
28155 28156
28156 28157
28171 28172
28171 28444
28241 28509
28259 28260
28260 28261
28261 28262
28262 28263
28263 28264
28264 28265
28265 28266
28266 28267
28267 28268
28268 28269
28269 28270
28270 28271
28271 28272
28272 28273
28273 28274
28274 28275
28275 28276
28276 28277
28277 28278
28278 28279
28279 28280
28280 28281
28281 28282
28282 28283
28283 28284
28284 28285
28285 28286
28286 28287
28287 28288
28288 28289
28289 28290
28290 28291
28291 28292
28292 28293
28293 28557
28337 28601
28346 28610
28346 28347
28353 28617
28371 28372
28371 28636
28372 28373
28373 28374
28388 28653
28442 28443
28443 28444
28508 28509
28635 28636
28683 28418
28683 28950
28707 28442
28707 28974
28772 28773
28772 28508
28773 29037
28824 28557
28824 29085
28865 28866
28865 28601
28866 28867
28867 28868
28868 28869
28869 28870
28870 28871
28871 28872
28872 28873
28873 28874
28874 28610
28881 29141
28881 28617
28902 29158
28902 28635
28920 29177
28920 28653
28950 28951
28951 29208
28974 29231
28983 28984
28983 29240
28996 29253
29037 29038
29085 29341
29141 29396
29158 29415
29177 29435
29192 29193
29192 29450
29208 29209
29208 29466
29231 29232
29232 29490
29240 29498
29253 29508
29341 29597
29396 29649
29415 29669
29419 29673
29419 29420
29420 29421
29421 29422
29422 29423
29423 29424
29424 29425
29425 29426
29426 29427
29427 29428
29428 29429
29429 29430
29430 29431
29431 29432
29432 29433
29433 29434
29434 29435
29435 29436
29436 29437
29437 29438
29438 29439
29439 29440
29440 29441
29441 29442
29442 29443
29443 29444
29444 29445
29445 29446
29446 29447
29447 29448
29448 29449
29449 29450
29450 29700
29458 29459
29458 29708
29459 29460
29460 29461
29461 29462
29462 29463
29463 29464
29464 29465
29465 29466
29466 29467
29467 29468
29468 29469
29469 29470
29470 29720
29470 29471
29471 29472
29472 29473
29473 29474
29474 29475
29475 29476
29476 29477
29477 29478
29478 29479
29479 29480
29480 29481
29481 29482
29482 29483
29483 29484
29484 29734
29484 29485
29485 29486
29486 29487
29487 29488
29488 29489
29489 29490
29490 29491
29491 29492
29492 29493
29493 29494
29494 29744
29498 29748
29499 29752
29499 29500
29500 29501
29501 29502
29502 29503
29503 29504
29504 29505
29505 29506
29506 29507
29507 29508
29597 29857
29649 29914
29669 29670
29669 29934
29670 29671
29671 29672
29672 29673
29700 29701
29701 29702
29702 29703
29703 29704
29704 29705
29705 29706
29706 29707
29707 29708
29744 29745
29745 29746
29746 29747
29747 29748
29748 29749
29749 29750
29750 29751
29751 29752
29855 29856
29855 30117
29856 29857
29857 29858
29914 30171
29932 30184
29932 29933
29933 29934
30117 30368
30171 30425
30184 30443
30368 30625
30422 30423
30422 30683
30423 30424
30424 30425
30593 30594
30594 30595
30595 30596
30596 30597
30597 30856
30625 30886
30677 30678
30677 30934
30678 30679
30679 30680
30680 30681
30681 30682
30682 30683
30856 31120
30886 31149
30934 31196
31094 31095
31095 31096
31096 31097
31097 31098
31098 31099
31099 31100
31100 31101
31101 31102
31102 31103
31103 31104
31104 31351
31120 31366
31144 31392
31144 31145
31145 31146
31146 31147
31147 31148
31148 31149
31176 31177
31177 31178
31178 31179
31179 31428
31196 31450
31351 31617
31366 31631
31392 31658
31428 31429
31429 31430
31430 31431
31431 31432
31432 31433
31433 31434
31434 31435
31435 31436
31436 31701
31436 31437
31437 31438
31438 31439
31439 31440
31440 31441
31441 31442
31442 31443
31443 31444
31444 31445
31445 31446
31446 31447
31447 31448
31447 31711
31448 31449
31449 31450
31617 31862
31626 31875
31626 31627
31627 31628
31628 31629
31629 31630
31630 31631
31631 31632
31632 31633
31633 31634
31634 31635
31635 31636
31636 31637
31637 31638
31638 31887
31658 31907
31701 31946
31711 31712
31712 31713
31713 31714
31714 31715
31715 31716
31716 31717
31717 31961
31862 32109
31870 32117
31870 31871
31871 31872
31872 31873
31873 31874
31874 31875
31887 31888
31888 31889
31889 31890
31890 31891
31891 31892
31892 31893
31893 31894
31894 31895
31895 31896
31896 31897
31897 31898
31898 31899
31899 32138
31907 32146
31946 32186
31961 32199
32109 32110
32110 32111
32111 32112
32112 32113
32113 32114
32114 32115
32115 32116
32116 32117
32138 32385
32146 32393
32149 32150
32149 32396
32150 32151
32151 32152
32152 32153
32153 32154
32154 32400
32186 32187
32187 32434
32199 32450
32385 32386
32386 32387
32387 32388
32388 32389
32389 32390
32390 32391
32391 32392
32392 32393
32393 32394
32394 32395
32395 32396
32400 32647
32434 32435
32435 32436
32450 32695
32647 32648
32648 32649
32649 32650
32650 32651
32651 32652
32652 32653
32653 32654
32654 32655
32898 33144
32898 32655
32937 33188
32937 32695
33144 33145
33145 33146
33146 33147
33188 33455
33455 33456